\ Model ajuste
\ LP format - for model browsing. Use MPS format to capture full model detail.
Minimize
  - 1.7505447755913951e+07 coef_ajuste + 8.6202626844070666e+06 Constant + [
   1.777444100916693e+07 coef_ajuste ^2 ] / 2 
Subject To
Bounds
 coef_ajuste <= 1
 Constant = 1
End
